20
133
7
44
56
49
95
95
70
28
0 1
0 2
0 3
0 4
0 6
0 7
0 8
0 11
0 12
0 13
0 14
0 15
0 18
1 6
1 7
1 8
1 9
1 10
1 11
1 12
1 13
1 14
1 15
1 16
1 17
1 18
1 19
2 3
2 4
2 5
2 7
2 8
2 12
2 14
2 15
2 16
2 17
2 18
2 19
3 4
3 5
3 6
3 8
3 9
3 10
3 11
3 15
3 16
3 18
4 5
4 6
4 7
4 8
4 9
4 10
4 11
4 12
4 15
4 16
4 17
4 18
5 6
5 7
5 8
5 10
5 11
5 12
5 14
5 15
5 16
5 17
5 18
6 7
6 8
6 11
6 13
6 14
6 15
6 16
6 17
6 18
6 19
7 8
7 9
7 10
7 11
7 12
7 14
7 16
7 17
7 19
8 9
8 12
8 13
8 15
8 16
8 17
8 18
8 19
9 11
9 17
9 18
9 19
10 12
10 14
10 16
10 17
10 18
10 19
11 13
11 14
11 15
11 19
12 16
12 17
12 18
12 19
13 14
13 16
13 17
13 18
13 19
14 15
14 16
14 17
14 19
15 17
15 18
15 19
16 19
17 18
17 19
18 19
11 13 8
16 17 19
15 2 18
9 14 1
5 0 3
6 4 12
7 10
